CuFF                                    
1.0
+10.2239999772  +0.0000000000  +0.0000000000 
 -5.1119999884  +8.8542437084  +0.0000000000 
 +0.0000000000  +0.0000000000 +26.2607994080 
Cu  C O H
64  5 2 4
 S
Cartesian
 +0.0000000000  +0.0000000000  +0.0000000000 F F F
 +1.2780128330  +0.7378462760  +2.0869457590 F F F
 -0.0000127970  +1.4757147170  +4.1738915190 T T T
 +0.0000000000  +0.0000000000  +6.2608370830 T T T
 -1.2779999971  +2.2135609271  +0.0000000000 F F F
 +0.0000128359  +2.9514072031  +2.0869457590 F F F
 -1.2780127941  +3.6892756441  +4.1738915190 T T T
 -1.2779999971  +2.2135609271  +6.2608370830 T T T
 -2.5559999942  +4.4271218542  +0.0000000000 F F F
 -1.2779871612  +5.1649681302  +2.0869457590 F F F
 -2.5560127912  +5.9028365712  +4.1738915190 T T T
 -2.5559999942  +4.4271218542  +6.2608370830 T T T
 -3.8339999913  +6.6406827813  +0.0000000000 F F F
 -2.5559871583  +7.3785290573  +2.0869457590 F F F
 -3.8340127883  +8.1163974983  +4.1738915190 T T T
 -3.8339999913  +6.6406827813  +6.2608370830 T T T
 +2.5559999943  +0.0000000000  +0.0000000000 F F F
 +3.8340128273  +0.7378462760  +2.0869457590 F F F
 +2.5559871973  +1.4757147170  +4.1738915190 T T T
 +2.5559999943  +0.0000000000  +6.2608370830 T T T
 +1.2779999972  +2.2135609271  +0.0000000000 F F F
 +2.5560128302  +2.9514072031  +2.0869457590 F F F
 +1.2779872002  +3.6892756441  +4.1738915190 T T T
 +1.2779999972  +2.2135609271  +6.2608370830 T T T
 +0.0000000001  +4.4271218542  +0.0000000000 F F F
 +1.2780128331  +5.1649681302  +2.0869457590 F F F
 -0.0000127969  +5.9028365712  +4.1738915190 T T T
 +0.0000000001  +4.4271218542  +6.2608370830 T T T
 -1.2779999970  +6.6406827813  +0.0000000000 F F F
 +0.0000128360  +7.3785290573  +2.0869457590 F F F
 -1.2780127940  +8.1163974983  +4.1738915190 T T T
 -1.2779999970  +6.6406827813  +6.2608370830 T T T
 +5.1119999886  +0.0000000000  +0.0000000000 F F F
 +6.3900128216  +0.7378462760  +2.0869457590 F F F
 +5.1119871916  +1.4757147170  +4.1738915190 T T T
 +5.1119999886  +0.0000000000  +6.2608370830 T T T
 +3.8339999915  +2.2135609271  +0.0000000000 F F F
 +5.1120128245  +2.9514072031  +2.0869457590 F F F
 +3.8339871945  +3.6892756441  +4.1738915190 T T T
 +3.8339999915  +2.2135609271  +6.2608370830 T T T
 +2.5559999944  +4.4271218542  +0.0000000000 F F F
 +3.8340128274  +5.1649681302  +2.0869457590 F F F
 +2.5559871974  +5.9028365712  +4.1738915190 T T T
 +2.5559999944  +4.4271218542  +6.2608370830 T T T
 +1.2779999973  +6.6406827813  +0.0000000000 F F F
 +2.5560128303  +7.3785290573  +2.0869457590 F F F
 +1.2779872003  +8.1163974983  +4.1738915190 T T T
 +1.2779999973  +6.6406827813  +6.2608370830 T T T
 +7.6679999829  +0.0000000000  +0.0000000000 F F F
 +8.9460128159  +0.7378462760  +2.0869457590 F F F
 +7.6679871859  +1.4757147170  +4.1738915190 T T T
 +7.6679999829  +0.0000000000  +6.2608370830 T T T
 +6.3899999858  +2.2135609271  +0.0000000000 F F F
 +7.6680128188  +2.9514072031  +2.0869457590 F F F
 +6.3899871888  +3.6892756441  +4.1738915190 T T T
 +6.3899999858  +2.2135609271  +6.2608370830 T T T
 +5.1119999887  +4.4271218542  +0.0000000000 F F F
 +6.3900128217  +5.1649681302  +2.0869457590 F F F
 +5.1119871917  +5.9028365712  +4.1738915190 T T T
 +5.1119999887  +4.4271218542  +6.2608370830 T T T
 +3.8339999916  +6.6406827813  +0.0000000000 F F F
 +5.1120128246  +7.3785290573  +2.0869457590 F F F
 +3.8339871946  +8.1163974983  +4.1738915190 T T T
 +3.8339999916  +6.6406827813  +6.2608370830 T T T
 -0.3702657652  +4.7768743812  +8.4623399580 T T T
 -0.0374394776  +3.4262736983  +8.4623399580 T T T
 +1.3502420102  +3.3710437364  +8.4623399580 T T T
 +0.8197552522  +5.4982960668  +8.4623399580 T T T
 +2.0782810467  +2.2140030767  +8.4623399580 T T T
 +1.8525268680  +4.6261391644  +8.4623399580 T T T
 +3.2996682728  +2.2164563659  +8.4623399580 T T T
 -1.3590433698  +5.1857117696  +8.4623399580 T T T
 -0.7139835620  +2.5972782873  +8.4623399580 T T T
 +0.9032800471  +6.5649876442  +8.4623399580 T T T
 +1.5619603932  +1.2768569453  +8.4623399580 T T T